tsp_instances/TSP50/instance82.tsp
NODE_COORD_SECTION
0 171 187
1 120 147
2 61 127
3 94 77
4 24 154
5 69 55
6 75 68
7 87 38
8 128 167
9 113 200
10 29 197
11 60 72
12 53 98
13 28 63
14 47 72
15 158 22
16 73 99
17 130 50
18 4 21
19 98 52
20 131 132
21 95 73
22 49 154
23 134 8
24 140 98
25 132 24
26 3 5
27 187 149
28 193 31
29 100 110
30 68 176
31 134 130
32 54 1
33 156 123
34 87 164
35 64 167
36 131 155
37 90 15
38 49 89
39 53 1
40 93 173
41 173 85
42 138 173
43 148 6
44 158 16
45 182 116
46 168 173
47 17 84
48 39 138
49 173 107
