tsp_instances/TSP50/instance82.opt.tour
TOUR_SECTION
1
28
46
50
42
29
16
45
44
24
26
18
20
8
38
33
40
27
19
14
48
13
39
15
12
6
7
22
4
30
17
3
49
23
5
11
31
36
35
41
10
43
9
37
2
21
32
25
34
47
-1